language Essence 1.3

letting class be
        function(1 --> 1, 2 --> 7, 3 --> 8, 4 --> 8, 5 --> 3, 6 --> 5, 7 --> 4, 8 --> 9, 9 --> 6, 10 --> 5, 11 --> 2,
                 12 --> 6, 13 --> 7, 14 --> 7, 15 --> 5, 16 --> 2, 17 --> 2, 18 --> 10, 19 --> 3, 20 --> 4, 21 --> 5,
                 22 --> 6, 23 --> 7, 24 --> 10, 25 --> 5, 26 --> 10, 27 --> 10, 28 --> 3, 29 --> 6, 30 --> 2)
letting deck_length be 46
letting deck_width be 84
letting length be
        function(1 --> 26, 2 --> 37, 3 --> 37, 4 --> 14, 5 --> 19, 6 --> 20, 7 --> 20, 8 --> 29, 9 --> 26, 10 --> 37,
                 11 --> 31, 12 --> 37, 13 --> 38, 14 --> 34, 15 --> 12, 16 --> 17, 17 --> 12, 18 --> 30, 19 --> 15,
                 20 --> 3, 21 --> 18, 22 --> 15, 23 --> 37, 24 --> 23, 25 --> 44, 26 --> 45, 27 --> 38, 28 --> 8,
                 29 --> 20, 30 --> 21)
letting n_classes be 10
letting n_containers be 30
letting separation be function({2, 6} --> 2, {7, 8} --> 38, {8, 10} --> 21)
letting width be
        function(1 --> 1, 2 --> 1, 3 --> 3, 4 --> 2, 5 --> 1, 6 --> 1, 7 --> 1, 8 --> 1, 9 --> 1, 10 --> 1, 11 --> 2,
                 12 --> 11, 13 --> 1, 14 --> 1, 15 --> 1, 16 --> 1, 17 --> 1, 18 --> 1, 19 --> 1, 20 --> 2, 21 --> 1,
                 22 --> 1, 23 --> 1, 24 --> 1, 25 --> 13, 26 --> 15, 27 --> 36, 28 --> 1, 29 --> 1, 30 --> 1)
